# Solution for model micodag
# Objective value = 2.0266813470929613e+01
s_0_1 0
s_1_0 0
s_0_2 0
s_2_0 1.8842804507379585e-01
s_1_2 0
s_2_1 3.0988900760568239e-01
s_1_3 0
s_3_1 5.2248004972349316e-01
s_1_9 0
s_9_1 0
s_1_12 0
s_12_1 3.6643336867037712e-01
s_1_13 0
s_13_1 9.5886167994541971e-02
s_2_3 0
s_3_2 2.4042138880621744e-01
s_2_4 0
s_4_2 3.0598039174616254e-01
s_2_6 0
s_6_2 0
s_2_8 0
s_8_2 2.3974275906877818e-01
s_3_4 0
s_4_3 6.2125216173929010e-01
s_3_6 0
s_6_3 0
s_3_7 0
s_7_3 0
s_3_8 0
s_8_3 3.7425020328937864e-01
s_3_9 0
s_9_3 3.2397019471389576e-01
s_3_12 0
s_12_3 0.0505421934063337
s_3_13 1.0253352661340820e-01
s_13_3 0
s_4_5 0
s_5_4 0
s_4_6 0
s_6_4 3.3143006898596994e-01
s_4_7 0
s_7_4 0
s_4_8 0
s_8_4 0
s_4_11 0
s_11_4 4.0564393361132911e-01
s_5_6 0
s_6_5 5.6444337256638555e-01
s_5_7 0
s_7_5 7.0219505888785161e-01
s_5_14 0
s_14_5 2.3883450561548214e-01
s_6_8 0
s_8_6 3.9200393393946564e-01
s_7_8 0
s_8_7 0
s_7_9 0
s_9_7 3.4549057040845188e-01
s_7_10 0
s_10_7 2.3213164941488573e-01
s_7_11 0
s_11_7 4.2585062145736874e-01
s_8_11 0
s_11_8 2.3072776327986633e-01
s_9_12 0
s_12_9 2.8033002059110279e-01
s_12_13 1.1445041384023380e-01
s_13_12 0
s_0_0 1.0207383623652819e+00
s_1_1 6.3400565198628422e-01
s_2_2 7.9513562473997057e-01
s_3_3 8.3156272632671024e-01
s_4_4 9.3299725508378506e-01
s_5_5 5.5900885273654355e-01
s_6_6 9.3838859956629017e-01
s_7_7 1.0506525387753931e+00
s_8_8 6.4701319391022594e-01
s_9_9 9.7769844977503428e-01
s_10_10 6.2236203365626208e-01
s_11_11 6.4546536752329686e-01
s_12_12 1.1875285872592527e+00
s_13_13 3.9136593499905903e-01
s_14_14 1.0093273847439090e+00
Gamma_0_0 1.01031597154815
Gamma_0_1 0
Gamma_0_2 0
Gamma_0_3 0
Gamma_0_4 0
Gamma_0_5 0
Gamma_0_6 0
Gamma_0_7 0
Gamma_0_8 0
Gamma_0_9 0
Gamma_0_10 0
Gamma_0_11 0
Gamma_0_12 0
Gamma_0_13 0
Gamma_0_14 0
Gamma_1_0 0
Gamma_1_1 0.796244718655191
Gamma_1_2 0
Gamma_1_3 0
Gamma_1_4 0
Gamma_1_5 0
Gamma_1_6 0
Gamma_1_7 0
Gamma_1_8 0
Gamma_1_9 0
Gamma_1_10 0
Gamma_1_11 0
Gamma_1_12 0
Gamma_1_13 0
Gamma_1_14 0
Gamma_2_0 -0.434082993301738
Gamma_2_1 -5.5667675324705557e-01
Gamma_2_2 8.9170377634053521e-01
Gamma_2_3 0
Gamma_2_4 0
Gamma_2_5 0
Gamma_2_6 0
Gamma_2_7 0
Gamma_2_8 0
Gamma_2_9 0
Gamma_2_10 0
Gamma_2_11 0
Gamma_2_12 0
Gamma_2_13 0
Gamma_2_14 0
Gamma_3_0 0
Gamma_3_1 7.2282781471349988e-01
Gamma_3_2 0.490327838090209
Gamma_3_3 9.1190061208813245e-01
Gamma_3_4 0
Gamma_3_5 0
Gamma_3_6 0
Gamma_3_7 0
Gamma_3_8 0
Gamma_3_9 0
Gamma_3_10 0
Gamma_3_11 0
Gamma_3_12 0
Gamma_3_13 3.2020856736416220e-01
Gamma_3_14 0
Gamma_4_0 0
Gamma_4_1 0
Gamma_4_2 5.5315494370579676e-01
Gamma_4_3 7.8819550984466435e-01
Gamma_4_4 9.6591783039955614e-01
Gamma_4_5 0
Gamma_4_6 0
Gamma_4_7 0
Gamma_4_8 0
Gamma_4_9 0
Gamma_4_10 0
Gamma_4_11 0
Gamma_4_12 0
Gamma_4_13 0
Gamma_4_14 0
Gamma_5_0 0
Gamma_5_1 0
Gamma_5_2 0
Gamma_5_3 0
Gamma_5_4 0
Gamma_5_5 7.4766894594903688e-01
Gamma_5_6 0
Gamma_5_7 0
Gamma_5_8 0
Gamma_5_9 0
Gamma_5_10 0
Gamma_5_11 0
Gamma_5_12 0
Gamma_5_13 0
Gamma_5_14 0
Gamma_6_0 0
Gamma_6_1 0
Gamma_6_2 0
Gamma_6_3 0
Gamma_6_4 -5.7569963434587224e-01
Gamma_6_5 7.5129446461849159e-01
Gamma_6_6 9.6870459871226489e-01
Gamma_6_7 0
Gamma_6_8 0
Gamma_6_9 0
Gamma_6_10 0
Gamma_6_11 0
Gamma_6_12 0
Gamma_6_13 0
Gamma_6_14 0
Gamma_7_0 0
Gamma_7_1 0
Gamma_7_2 0
Gamma_7_3 0
Gamma_7_4 0
Gamma_7_5 -8.3797079835030763e-01
Gamma_7_6 0
Gamma_7_7 1.0250134334609440e+00
Gamma_7_8 0
Gamma_7_9 0
Gamma_7_10 0
Gamma_7_11 0
Gamma_7_12 0
Gamma_7_13 0
Gamma_7_14 0
Gamma_8_0 0
Gamma_8_1 0
Gamma_8_2 4.8963533274139748e-01
Gamma_8_3 6.1175992291860648e-01
Gamma_8_4 0
Gamma_8_5 0
Gamma_8_6 -6.2610217531922507e-01
Gamma_8_7 0
Gamma_8_8 8.0437130350990671e-01
Gamma_8_9 0
Gamma_8_10 0
Gamma_8_11 0
Gamma_8_12 0
Gamma_8_13 0
Gamma_8_14 0
Gamma_9_0 0
Gamma_9_1 0
Gamma_9_2 0
Gamma_9_3 5.6918379695305432e-01
Gamma_9_4 0
Gamma_9_5 0
Gamma_9_6 0
Gamma_9_7 -5.8778445914165922e-01
Gamma_9_8 0
Gamma_9_9 9.8878635193606623e-01
Gamma_9_10 0
Gamma_9_11 0
Gamma_9_12 0
Gamma_9_13 0
Gamma_9_14 0
Gamma_10_0 0
Gamma_10_1 0
Gamma_10_2 0
Gamma_10_3 0
Gamma_10_4 0
Gamma_10_5 0
Gamma_10_6 0
Gamma_10_7 4.8180042488035085e-01
Gamma_10_8 0
Gamma_10_9 0
Gamma_10_10 7.8889925444017417e-01
Gamma_10_11 0
Gamma_10_12 0
Gamma_10_13 0
Gamma_10_14 0
Gamma_11_0 0
Gamma_11_1 0
Gamma_11_2 0
Gamma_11_3 0
Gamma_11_4 -6.3690182415450014e-01
Gamma_11_5 0
Gamma_11_6 0
Gamma_11_7 0.652572311286166
Gamma_11_8 4.8034129874482717e-01
Gamma_11_9 0
Gamma_11_10 0
Gamma_11_11 8.0340859313508517e-01
Gamma_11_12 0
Gamma_11_13 0
Gamma_11_14 0
Gamma_12_0 0
Gamma_12_1 -6.0533740068690445e-01
Gamma_12_2 0
Gamma_12_3 2.2481591003826776e-01
Gamma_12_4 0
Gamma_12_5 0
Gamma_12_6 0
Gamma_12_7 0
Gamma_12_8 0
Gamma_12_9 -5.2946201052682129e-01
Gamma_12_10 0
Gamma_12_11 0
Gamma_12_12 1.0897378525403496e+00
Gamma_12_13 3.3830520811869652e-01
Gamma_12_14 0
Gamma_13_0 0
Gamma_13_1 3.0965491760109826e-01
Gamma_13_2 0
Gamma_13_3 0
Gamma_13_4 0
Gamma_13_5 0
Gamma_13_6 0
Gamma_13_7 0
Gamma_13_8 0
Gamma_13_9 0
Gamma_13_10 0
Gamma_13_11 0
Gamma_13_12 0
Gamma_13_13 6.2559246718535544e-01
Gamma_13_14 0
Gamma_14_0 0
Gamma_14_1 0
Gamma_14_2 0
Gamma_14_3 0
Gamma_14_4 0
Gamma_14_5 4.8870697316028050e-01
Gamma_14_6 0
Gamma_14_7 0
Gamma_14_8 0
Gamma_14_9 0
Gamma_14_10 0
Gamma_14_11 0
Gamma_14_12 0
Gamma_14_13 0
Gamma_14_14 1.0046528677826534e+00
psi_0 6
psi_1 6
psi_2 5
psi_3 4
psi_4 3
psi_5 3
psi_6 2
psi_7 2
psi_8 1
psi_9 1
psi_10 0
psi_11 0
psi_12 0
psi_13 5
psi_14 0
g_0_0 0
g_0_1 0
g_0_2 0
g_0_3 0
g_0_4 0
g_0_5 0
g_0_6 0
g_0_7 0
g_0_8 0
g_0_9 0
g_0_10 0
g_0_11 0
g_0_12 0
g_0_13 0
g_0_14 0
g_1_0 0
g_1_1 0
g_1_2 0
g_1_3 0
g_1_4 0
g_1_5 0
g_1_6 0
g_1_7 0
g_1_8 0
g_1_9 0
g_1_10 0
g_1_11 0
g_1_12 0
g_1_13 0
g_1_14 0
g_2_0 1
g_2_1 1
g_2_2 0
g_2_3 0
g_2_4 0
g_2_5 0
g_2_6 0
g_2_7 0
g_2_8 0
g_2_9 0
g_2_10 0
g_2_11 0
g_2_12 0
g_2_13 0
g_2_14 0
g_3_0 0
g_3_1 1
g_3_2 1
g_3_3 0
g_3_4 0
g_3_5 0
g_3_6 0
g_3_7 0
g_3_8 0
g_3_9 0
g_3_10 0
g_3_11 0
g_3_12 0
g_3_13 1
g_3_14 0
g_4_0 0
g_4_1 0
g_4_2 1
g_4_3 1
g_4_4 0
g_4_5 0
g_4_6 0
g_4_7 0
g_4_8 0
g_4_9 0
g_4_10 0
g_4_11 0
g_4_12 0
g_4_13 0
g_4_14 0
g_5_0 0
g_5_1 0
g_5_2 0
g_5_3 0
g_5_4 0
g_5_5 0
g_5_6 0
g_5_7 0
g_5_8 0
g_5_9 0
g_5_10 0
g_5_11 0
g_5_12 0
g_5_13 0
g_5_14 0
g_6_0 0
g_6_1 0
g_6_2 0
g_6_3 0
g_6_4 1
g_6_5 1
g_6_6 0
g_6_7 0
g_6_8 0
g_6_9 0
g_6_10 0
g_6_11 0
g_6_12 0
g_6_13 0
g_6_14 0
g_7_0 0
g_7_1 0
g_7_2 0
g_7_3 0
g_7_4 0
g_7_5 1
g_7_6 0
g_7_7 0
g_7_8 0
g_7_9 0
g_7_10 0
g_7_11 0
g_7_12 0
g_7_13 0
g_7_14 0
g_8_0 0
g_8_1 0
g_8_2 1
g_8_3 1
g_8_4 0
g_8_5 0
g_8_6 1
g_8_7 0
g_8_8 0
g_8_9 0
g_8_10 0
g_8_11 0
g_8_12 0
g_8_13 0
g_8_14 0
g_9_0 0
g_9_1 0
g_9_2 0
g_9_3 1
g_9_4 0
g_9_5 0
g_9_6 0
g_9_7 1
g_9_8 0
g_9_9 0
g_9_10 0
g_9_11 0
g_9_12 0
g_9_13 0
g_9_14 0
g_10_0 0
g_10_1 0
g_10_2 0
g_10_3 0
g_10_4 0
g_10_5 0
g_10_6 0
g_10_7 1
g_10_8 0
g_10_9 0
g_10_10 0
g_10_11 0
g_10_12 0
g_10_13 0
g_10_14 0
g_11_0 0
g_11_1 0
g_11_2 0
g_11_3 0
g_11_4 1
g_11_5 0
g_11_6 0
g_11_7 1
g_11_8 1
g_11_9 0
g_11_10 0
g_11_11 0
g_11_12 0
g_11_13 0
g_11_14 0
g_12_0 0
g_12_1 1
g_12_2 0
g_12_3 1
g_12_4 0
g_12_5 0
g_12_6 0
g_12_7 0
g_12_8 0
g_12_9 1
g_12_10 0
g_12_11 0
g_12_12 0
g_12_13 1
g_12_14 0
g_13_0 0
g_13_1 1
g_13_2 0
g_13_3 0
g_13_4 0
g_13_5 0
g_13_6 0
g_13_7 0
g_13_8 0
g_13_9 0
g_13_10 0
g_13_11 0
g_13_12 0
g_13_13 0
g_13_14 0
g_14_0 0
g_14_1 0
g_14_2 0
g_14_3 0
g_14_4 0
g_14_5 1
g_14_6 0
g_14_7 0
g_14_8 0
g_14_9 0
g_14_10 0
g_14_11 0
g_14_12 0
g_14_13 0
g_14_14 0
T_0 -2.0526250089886844e-02
T_1 4.5569740977978768e-01
T_2 2.2924258172065493e-01
T_3 1.8444854563975355e-01
T_4 6.9353020171504909e-02
T_5 5.8158996921443418e-01
T_6 6.3591130516442718e-02
T_7 -4.9411436640099282e-02
T_8 4.3538859224676685e-01
T_9 2.2553990055243389e-02
T_10 4.7423330788812734e-01
T_11 4.3778372230626417e-01
T_12 -1.7187433011837072e-01
T_13 9.3811226153530924e-01
T_14 -9.2841533070782134e-03
